91 1849
1 3 5 12 13 15 17 18 19 21 23 27 29 32 33 35 37 38 40 42 45 48 49 51 52 53 54 55 58 62 65 69 70 72 73 78 79 80 81 82 84 85 86 87 89 90
0 6 7 9 10 11 12 14 16 18 19 20 21 22 30 38 42 43 44 45 47 50 52 57 60 62 66 67 71 74 78 79 82 83 84 85 86 87
3 7 8 13 16 17 21 25 26 31 33 34 38 39 40 44 45 47 48 49 52 53 55 56 58 64 66 67 69 71 76 77 78 82 83 85 88 90
0 2 5 8 11 12 15 17 18 21 23 24 27 28 31 33 35 36 37 39 40 41 44 45 48 49 50 51 53 57 59 60 62 63 67 69 75 77 78 80 81 83 85 87
8 13 15 18 21 24 26 27 32 33 35 36 39 41 45 50 51 52 53 57 60 62 66 67 68 69 73 74 76 78 80 82 83 84 85 86 89 90
0 3 8 9 10 12 13 14 16 18 19 24 27 30 34 35 36 39 41 42 43 44 46 47 50 51 53 56 58 59 63 66 70 71 74 76 81 82 88 89 90
1 7 8 10 14 15 17 18 19 20 22 23 25 28 30 32 33 39 42 44 48 50 51 56 58 59 61 63 66 67 70 72 74 77 80 82 85 86 87 88 90
1 2 6 8 9 10 14 17 20 21 26 28 29 30 34 35 37 41 43 44 51 52 53 59 60 63 65 66 68 69 70 71 72 73 76 79 84 85 89
2 3 4 5 6 7 9 11 12 13 15 16 18 21 25 30 31 32 33 35 36 38 42 44 45 53 54 55 56 57 58 59 62 63 67 69 70 72 73 74 75 76 83 84 87 88
1 5 7 8 10 14 15 17 18 23 25 29 31 33 36 38 39 40 41 45 47 48 49 50 54 55 56 57 66 67 68 70 71 74 75 76 79 83 84 85
1 5 6 7 9 13 14 18 22 27 28 29 31 32 33 34 37 39 41 43 44 45 47 49 53 55 56 57 58 59 61 68 69 70 73 76 77 81 82 83 88 90
1 3 8 19 20 21 22 23 24 25 26 27 31 33 36 41 44 48 49 50 53 54 56 57 58 60 62 63 65 72 73 74 76 79 82 84 85 86 87 89 90
0 1 3 5 8 19 21 22 23 24 26 28 29 32 34 40 43 45 47 49 50 51 52 53 59 65 67 69 73 74 76 80 82 83 86 87 88 89 90
0 2 4 5 8 10 14 18 20 21 22 23 28 31 32 35 37 38 39 40 43 44 45 52 53 57 58 61 64 65 68 71 72 77 78 81 83 90
1 5 6 7 9 10 13 15 17 18 19 24 28 29 32 33 35 37 41 42 44 45 49 52 53 56 60 62 65 71 72 73 77 79 80 82 83 84 87 89 90
0 3 4 6 8 9 14 21 27 30 32 44 46 50 57 58 67 71 72 73 74 75 80 81 82 86
1 2 5 8 17 25 26 27 30 32 35 36 37 39 41 43 44 45 48 49 50 56 58 63 66 67 69 70 72 73 74 75 78 82 87 88 89
0 2 3 6 7 9 14 16 18 20 21 23 27 29 30 31 32 35 39 40 41 42 43 45 46 47 48 50 53 54 55 56 58 59 61 62 65 67 72 73 75 80 82 84 85 86 87
0 1 3 4 5 6 8 9 10 13 14 17 21 22 25 26 28 31 32 34 36 40 42 43 45 46 47 48 49 50 51 52 53 55 56 57 61 62 63 71 73 77 78 80 83 85 89 90
0 1 5 6 11 12 14 20 21 24 25 27 29 30 32 35 37 38 42 46 49 58 62 63 64 68 69 74 75 79 80 83 85 87
1 6 7 11 13 17 19 21 22 23 26 27 28 30 31 32 33 35 36 37 39 40 42 44 45 47 49 50 51 53 54 61 62 67 68 75 76 77 78 79 81 82 88
0 1 2 3 4 7 8 11 12 13 15 17 18 19 20 22 25 26 28 29 32 35 36 39 44 48 49 52 53 54 57 58 59 60 62 65 66 67 69 70 73 74 76 78 80 81 87 88 89
1 6 10 11 12 13 18 20 21 24 25 29 31 33 37 38 39 40 41 42 43 46 48 51 53 54 55 57 66 70 72 75 78 81 82 83 87 89 90
0 3 6 9 11 12 13 17 20 27 28 29 33 37 39 40 41 47 48 50 51 52 54 57 58 60 62 65 66 68 70 71 73 75 79 81 84 85 88
3 4 5 11 12 14 19 22 26 29 32 37 40 42 43 45 47 53 55 56 57 59 61 64 65 66 68 71 78 79 80 82 84 86 87 88 90
2 6 8 9 11 16 18 19 21 22 26 31 32 33 48 52 53 57 58 59 60 61 65 67 69 70 73 74 75 77 78 81 82 83 84 85 86 87 88 89
2 4 7 11 12 16 18 20 21 24 25 27 31 32 35 36 42 47 50 54 55 69 70 72 73 74 75 84 87 89
0 3 4 5 10 11 15 16 17 19 20 23 26 28 31 33 35 37 39 42 43 44 45 47 48 52 53 55 57 58 60 61 64 66 71 72 73 74 75 77 81 83 84 86 87 88 89 90
3 6 7 10 12 13 14 18 20 21 23 27 30 34 35 37 38 39 43 44 45 47 49 50 51 54 56 58 59 60 61 62 65 66 67 68 70 72 73 74 75 77 79 84 86 87 88 89 90
0 7 9 10 12 14 17 19 21 22 23 24 31 32 43 47 48 49 53 54 55 59 61 65 66 68 69 72 74 75 77 78 79 80 81 82 85 89
1 5 6 7 8 15 16 17 19 20 28 31 32 34 35 36 37 38 39 41 42 46 50 51 53 54 56 58 60 62 63 64 65 67 68 75 85
2 3 8 9 10 11 13 17 18 20 22 25 26 27 29 30 32 33 34 37 38 39 40 41 44 45 46 53 57 58 66 69 72 73 75 77 78 82 84 85 86 87 88 89 90
0 4 6 8 10 12 13 14 15 16 17 18 19 20 21 24 25 26 29 30 31 34 40 43 44 45 46 50 55 56 61 63 64 65 66 67 73 75 77 78 79 83 87 90
0 2 3 4 6 8 9 10 11 14 20 22 23 25 27 31 34 38 39 40 42 44 46 47 50 52 54 56 60 62 64 67 68 74 78 79 81 84 85 86 88 90
2 5 7 10 12 18 28 30 31 32 33 37 40 41 43 46 47 49 51 59 63 64 69 71 75 76 77 78 84 86 89 90
0 3 4 5 7 8 13 14 16 17 19 20 21 26 27 28 30 36 38 40 41 45 46 50 51 52 59 60 61 62 63 65 67 68 69 72 74 78 82 83 86 88
3 4 5 8 9 11 16 18 20 21 26 30 35 38 39 41 43 45 49 50 52 55 63 64 68 69 70 71 72 73 74 75 82 83 89 90
0 3 7 10 13 14 16 19 20 22 23 24 27 28 30 31 34 39 42 47 48 50 54 57 61 62 63 67 69 71 77 79 81 83 84
0 1 2 8 9 13 19 22 28 30 31 33 35 36 40 41 45 46 47 48 49 56 57 58 59 63 67 69 70 71 72 73 74 76 77 79 83 84 86 88
2 3 4 5 6 9 10 13 16 17 20 21 22 23 27 28 30 31 33 36 37 41 44 45 47 49 52 53 54 55 57 58 61 69 70 75 78 79 80 81 82 83 85 86 88 89
0 2 3 9 12 13 17 18 20 22 23 24 31 32 33 34 35 38 45 49 50 52 54 56 63 65 68 69 70 71 74 77 79 80 81 83 85 89 90
3 4 5 7 9 10 11 14 16 17 22 23 30 31 34 35 36 38 39 44 50 52 53 56 58 59 62 63 64 65 67 68 69 72 75 81 84 85 88
0 1 5 6 8 14 17 18 19 20 22 24 26 27 30 33 37 48 49 51 54 57 58 60 64 66 70 71 77 78 80 86 87 88 89
1 5 7 10 12 13 16 17 18 22 24 27 28 29 32 34 36 44 45 51 53 54 56 57 59 61 69 70 73 75 76 77 80 84 87 88
1 2 3 5 6 7 8 10 11 13 14 15 16 20 21 27 28 31 32 33 39 41 43 46 47 52 54 55 56 64 73 74 79 80 86
0 1 2 3 4 8 9 10 12 13 14 16 17 18 20 24 27 28 31 32 35 36 38 39 40 43 46 47 48 51 52 53 54 56 57 58 59 60 63 67 68 70 72 74 75 76 84 85 86 88 90
5 15 17 18 19 22 30 31 32 33 34 35 38 44 45 48 50 51 52 55 57 67 68 70 71 72 73 75 76 79 89
1 2 5 9 10 12 17 18 20 23 24 26 27 28 29 33 34 37 38 39 44 45 48 51 53 58 60 61 64 66 68 69 70 71 72 73 74 75 76 77 78 79 86 87 88 89 90
0 2 3 6 9 11 16 17 18 21 22 23 25 27 29 37 38 42 45 46 47 50 52 53 55 57 60 61 63 65 71 76 77 83 85 86 87 88 90
0 2 3 9 10 11 12 14 16 18 19 20 21 28 29 34 36 38 39 40 42 54 58 60 61 63 64 67 69 70 73 74 76 79 82 85 88 89
1 3 4 5 6 9 11 12 15 16 17 18 20 23 26 28 30 32 33 35 36 37 40 41 46 48 57 60 62 63 64 65 67 72 75 76 77 79 80 81 88 89
0 3 4 5 6 7 12 18 20 22 23 28 30 34 35 42 43 45 46 47 53 55 56 59 60 61 62 64 65 68 69 74 76 77 78 79 82 83 84 86 89 90
0 1 2 4 7 12 13 14 18 21 23 25 27 33 35 36 39 40 41 44 45 46 48 53 54 57 58 62 63 65 66 68 70 71 72 73 74 75 77 81 83 88 89
0 2 3 4 5 7 8 10 11 12 13 14 17 18 20 21 22 24 25 27 29 30 31 39 41 43 45 47 48 51 52 55 57 59 62 63 64 66 69 77 78 79 81 82 83 84 85 87 88 89
0 8 9 11 17 20 21 22 23 26 28 29 30 33 37 39 40 42 43 44 45 49 52 55 57 60 61 64 66 68 70 71 72 76 78 79 82 84 86 89 90
0 2 8 9 10 17 18 22 24 26 27 29 32 36 39 44 46 48 51 53 54 58 59 62 64 65 66 67 69 71 72 75 76 78 79 81 85 86 87 88 89
2 5 6 8 9 10 11 14 16 17 18 24 28 30 32 33 38 40 41 43 44 45 51 58 59 61 64 67 71 72 74 75 76 79 80 81 82 85 87 89
1 3 4 8 9 10 11 13 15 18 21 22 23 24 25 27 31 37 38 39 42 43 45 46 48 50 52 53 54 61 64 67 68 70 71 73 74 77 78 81 84 85 88 89 90
0 2 5 6 8 10 11 13 15 16 17 19 21 23 25 27 28 30 31 38 39 41 42 45 47 49 52 55 56 59 69 70 73 75 76 78 80 81 84 89
3 5 6 7 8 10 12 17 21 24 25 28 29 34 35 38 41 43 45 51 53 55 56 58 60 61 62 64 65 69 70 72 73 77 78 79 81 83 87 88 89 90
1 3 4 7 11 14 21 23 25 27 28 30 33 35 42 45 47 48 49 50 51 54 59 66 71 72 80 81 82 84 86 88
6 10 13 17 18 20 24 25 27 28 29 32 35 37 39 43 47 48 49 51 54 56 57 59 65 66 67 69 71 72 74 76 77 78 79 80 83 86 87 88 89 90
0 1 3 4 8 11 14 17 18 19 20 21 23 28 30 33 35 37 41 50 51 52 53 55 59 63 68 69 72 74 77 86 87 88 89 90
3 5 6 7 8 11 16 18 19 30 32 34 35 36 37 38 40 41 45 48 49 50 52 53 62 69 71 76 77 79 80 82 85 89
2 13 19 24 27 30 32 33 34 36 41 42 44 47 49 50 51 53 54 55 56 57 59 65 66 68 71 75 80 81 85 86
0 7 11 12 13 14 17 21 23 24 25 28 29 30 32 35 40 41 48 50 51 52 55 59 61 64 66 70 72 75 83 85 88
1 2 4 5 6 7 9 16 21 22 23 24 27 28 29 31 32 42 47 52 53 54 55 60 61 64 65 67 72 73 74 80 81 82 84 85
1 2 3 4 6 8 9 12 15 16 17 20 21 25 28 30 32 33 35 37 38 41 45 46 49 50 55 56 57 61 66 68 69 70 74 76 77 78 80 81 83 84 86 88 89
4 7 9 10 13 19 20 23 24 28 29 30 33 35 36 40 41 45 46 47 51 52 54 57 62 64 67 70 72 73 74 75 76 81 83 84 89 90
0 2 3 4 7 8 10 12 16 19 21 25 26 29 31 34 35 36 37 38 39 40 41 43 47 49 51 53 55 58 59 61 62 63 67 70 71 74 76 77 78 80 85 87 88 89 90
0 5 6 7 8 9 10 16 21 22 23 25 26 28 36 38 39 40 42 43 45 46 47 49 52 54 57 58 59 65 67 68 69 74 80 81 85 86 87 89
1 2 5 7 9 13 14 15 18 23 24 27 34 36 37 38 40 42 46 47 48 52 54 55 56 57 60 61 63 64 69 74 76 77 79 82 84 85 90
0 6 7 8 11 13 14 15 16 17 22 26 27 28 29 31 35 36 38 41 45 46 47 50 52 54 55 56 59 60 61 62 65 66 68 73 75 77 79 80 82 84 85 88 90
0 4 7 8 10 11 12 14 15 16 17 18 21 23 25 26 27 28 31 32 36 38 43 44 46 47 49 52 57 58 59 66 68 72 75 76 79 80 81 85 87
1 4 5 6 8 9 11 12 15 16 19 21 25 26 27 28 29 33 35 36 38 40 44 45 47 49 51 52 56 57 61 62 66 67 68 69 70 71 75 76 77 79 80 85 86 90
3 8 9 15 16 17 19 20 22 23 25 26 27 28 29 30 31 32 34 36 39 41 43 45 46 47 50 52 55 56 58 64 65 68 72 73 74 76 81 82 84 86 89
2 4 5 7 8 9 10 11 12 20 21 34 38 43 45 46 47 48 49 50 51 54 55 56 58 61 63 67 68 69 71 73 74 75 78 79 81 82 83 84 85 88 89 90
2 3 6 10 13 14 18 20 25 27 28 29 31 32 34 37 38 40 42 43 47 48 50 51 52 53 57 59 61 62 63 67 69 71 72 74 78 86 88 89
0 1 2 3 4 13 16 18 20 21 22 24 25 29 31 32 33 34 35 39 42 47 51 53 54 55 57 58 59 61 67 69 76 77 79 80 81 82 88
0 1 7 9 11 14 19 20 23 24 28 29 32 33 37 38 39 40 44 46 47 49 50 51 53 54 55 56 59 61 63 71 72 73 74 76 78 82 83 84 87 89 90
0 3 4 6 12 14 15 17 18 19 21 24 29 39 40 42 43 44 50 56 58 60 61 63 64 66 67 69 70 72 73 74 78 81 82 84 87 88 90
0 3 5 10 13 15 20 21 22 23 25 27 29 33 37 39 40 41 50 52 53 55 56 57 58 59 60 64 66 67 68 70 73 75 76 78 80 82 83 84 86 90
0 1 2 4 5 6 10 11 12 14 15 16 17 20 22 24 25 29 31 35 36 39 49 51 53 54 56 60 63 66 71 72 75 76 78 79 80 81 83 84 85 87 89 90
1 2 3 4 8 9 10 12 13 14 18 19 22 25 27 32 35 36 37 38 39 40 48 51 52 53 59 61 65 67 68 76 79 81 82 84 85 87 88 90
0 1 4 7 8 9 11 14 17 23 24 25 26 27 28 31 33 34 37 38 41 43 45 51 53 54 57 58 60 66 67 68 71 72 75 76 79 80 81 82 83
0 1 2 3 4 6 7 9 11 17 18 19 23 25 29 30 31 33 39 40 41 45 48 49 53 55 56 57 63 64 65 66 69 70 71 72 73 74 76 82 83 87 89
0 1 4 6 11 12 15 17 24 25 27 28 31 33 34 35 38 39 42 44 45 47 48 51 54 55 60 61 62 64 67 70 74 75 77 81 89 90
0 1 3 6 8 11 12 14 16 17 19 21 22 24 25 26 27 28 31 32 42 43 47 48 53 55 56 59 61 62 69 70 73 79 80 82 83 85 88 89 90
2 5 6 8 10 12 16 20 21 23 24 25 27 28 31 33 35 38 39 41 42 43 45 47 48 49 50 52 53 55 57 59 60 61 62 65 67 69 72 76 77 78 80 83 87 89 90
0 4 5 7 11 12 14 16 18 21 22 25 26 27 28 29 31 34 36 39 40 42 46 47 49 50 51 52 53 54 55 56 57 58 59 61 62 63 67 68 69 70 75 76 77 79 82 85 86 87 88 90
0 2 4 5 6 10 11 12 13 14 18 22 24 27 28 31 32 33 34 36 40 45 47 48 51 54 57 59 61 62 68 69 71 72 74 76 79 80 81 82 83 86 87 88 89
